TOUR_SECTION
1
116
191
31
196
193
131
58
93
19
71
94
9
163
166
49
181
83
3
34
200
110
64
152
161
50
2
52
90
10
7
47
199
125
170
120
187
81
103
128
73
157
35
140
92
18
45
46
68
24
43
36
174
109
190
79
133
78
85
48
155
72
80
37
67
151
44
61
179
168
56
95
150
143
136
111
162
194
104
77
134
65
195
74
182
88
172
106
158
180
98
70
102
62
5
60
30
198
96
119
84
160
25
185
142
38
13
117
97
153
118
201
100
124
167
141
20
154
40
4
6
16
86
135
91
108
159
53
138
144
189
129
123
148
127
173
146
175
115
51
186
41
11
15
75
17
169
188
105
63
26
149
126
14
21
197
145
66
12
164
22
112
121
101
69
89
113
42
183
147
55
156
29
76
114
178
32
137
176
165
177
28
87
57
184
171
139
33
99
192
39
54
130
132
8
27
59
82
107
23
122
-1
EOF